17	4	3
24	10	22	15	29	49	17	
0	0	0	0	0	6	3	7	2	5	1	3	2	3	4
6	0	1	9	2	1	7	9	4	8	9	3	7	9	17
10	2	0	0	0	2	2	6	3	5	9	2	5	11
8	0	0	5	8	3	3	5	6	6	4	2	10	17
3	0	3	6	8	8	2	8	3	7	6	3	6	8	17
25	10	0	0	0	9	3	9	5	4	4	2	16	17
200	5	0	10	1	5	4	1	4	8	8	1	17
250	2	0	3	0	2	10	9	8	3	4	3	12	14	16
25	0	2	5	8	7	6	7	1	1	3	2	11	17
225	4	0	0	0	5	9	4	3	1	10	1	12
100	0	1	5	0	9	9	3	7	3	6	1	17
250	0	1	10	9	10	8	9	1	1	7	3	13	15	17
4	9	0	6	0	8	3	6	7	1	8	2	17	17
9	3	0	0	1	1	7	3	7	8	4	1	17
5	1	0	2	7	10	2	2	3	5	2	1	17
3	9	0	2	0	3	3	1	5	9	4	2	17	17
0	0	0	0	0	10	9	1	9	9	2	0
